{"OBJ_VAL": 226, "status": "optimal", "Name": "scp53", "time": "N/A", "X": [0, 1, 2, 4, 10, 11, 15, 16, 17, 19, 20, 21, 23, 24, 28, 29, 30, 35, 42, 43, 44, 47, 48, 50, 51, 53, 54, 56, 58, 59, 60, 62, 64, 67, 68, 73, 81, 85, 92, 96, 97, 100, 102, 106, 109, 114, 117, 125, 126, 127, 128, 162, 166, 283, 383, 471], "Pi": [1.0, -0.0, 1.0, 4.0, 3.0, 3.0, 2.0, -0.0, 1.0, 4.0, -0.0, -0.0, -0.0, -0.0, -0.0, -0.0, 2.0, 1.0, -0.0, -0.0, -0.0, -0.0, -0.0, 3.0, -0.0, -0.0, 9.0, -0.0, 7.0, -0.0, -0.0, -0.0, 1.0, 2.0, 2.0, -0.0, -0.0, -0.0, 2.0, -0.0, 2.0, 1.0, 1.0, -0.0, 6.0, 4.0, 0.0, -0.0, 2.0, -0.0, -0.0, 0.0, -0.0, 3.0, 3.0, -0.0, -0.0, -0.0, 2.0, 2.0, -0.0, 1.0, 1.0, 5.0, 1.0, -0.0, -0.0, 8.0, -0.0, -0.0, -0.0, 3.0, -0.0, -0.0, -0.0, 1.0, -0.0, 2.0, 10.0, -0.0, -0.0, -0.0, -0.0, -0.0, -0.0, -0.0, 3.0, 2.0, -0.0, 5.0, -0.0, -0.0, -0.0, 2.0, -0.0, 1.0, 3.0, 2.0, -0.0, 2.0, -0.0, 8.0, -0.0, -0.0, 1.0, 1.0, -0.0, 1.0, -0.0, -0.0, -0.0, 2.0, -0.0, -0.0, -0.0, -0.0, 3.0, 2.0, -0.0, 3.0, 4.0, 4.0, 0.0, 1.0, 3.0, -0.0, -0.0, -0.0, 4.0, 0.0, -0.0, -0.0, -0.0, -0.0, 0.0, 1.0, 2.0, -0.0, 2.0, -0.0, -0.0, 3.0, -0.0, -0.0, 1.0, -0.0, -0.0, -0.0, 2.0, 2.0, 5.0, -0.0, 1.0, 2.0, 1.0, -0.0, -0.0, 5.0, -0.0, 2.0, 3.0, 1.0, -0.0, -0.0, 2.0, 0.0, -0.0, -0.0, -0.0, -0.0, -0.0, -0.0, -0.0, -0.0, -0.0, -0.0, -0.0, -0.0, -0.0, -0.0, -0.0, 1.0, 13.0, -0.0, 4.0, -0.0, -0.0, -0.0, 1.0, -0.0, -0.0, 2.0, -0.0, 6.0, -0.0, 2.0, -0.0, -0.0, -0.0, -0.0], "Dj": [0.0, 0.0, 0.0, 0.0, 0.0, 0.0, 0.0, 0.0, 0.0, 0.0, 0.0, 0.0, 0.0, 0.0, 0.0, 0.0, 0.0, 0.0, 0.0, 0.0, 0.0, 0.0, 0.0, 0.0, 0.0, 2.0, 0.0, 0.0, 0.0, 0.0, 0.0, 0.0, 2.0, 1.0, 2.0, 0.0, 0.0, 0.0, 1.0, 2.0, 2.0, 0.0, 0.0, 0.0, 0.0, 3.0, 0.0, 0.0, 0.0, 0.0, 0.0, 0.0, 3.0, 0.0, 0.0, 1.0, 0.0, 2.0, 0.0, 0.0, 0.0, 3.0, 0.0, 1.0, 0.0, 1.0, 0.0, 0.0, 0.0, 1.0, 3.0, 3.0, 2.0, 0.0, 2.0, 0.0, 3.0, 1.0, 1.0, 4.0, 1.0, 0.0, 0.0, 3.0, 2.0, 0.0, 4.0, 1.0, 2.0, 2.0, 3.0, 3.0, 0.0, 1.0, 4.0, 4.0, -1.0, 0.0, 0.0, 0.0, 0.0, 4.0, 0.0, 0.0, 0.0, 3.0, 0.0, 2.0, 1.0, 0.0, 3.0, 5.0, 0.0, 5.0, 0.0, 3.0, 0.0, 0.0, 3.0, 5.0, 0.0, 5.0, 4.0, 5.0, 5.0, 0.0, 0.0, 0.0, 0.0, 4.0, 1.0, 0.0, 4.0, 4.0, 2.0, 6.0, 6.0, 6.0, 6.0, 4.0, 5.0, 0.0, 3.0, 6.0, 4.0, 7.0, 4.0, 5.0, 6.0, 7.0, 7.0, 5.0, 4.0, 4.0, 7.0, 7.0, 2.0, 6.0, 5.0, 4.0, 1.0, 2.0, 0.0, 0.0, 8.0, 5.0, 0.0, 5.0, 8.0, 0.0, 5.0, 4.0, 3.0, 6.0, 8.0, 6.0, 3.0, 4.0, 6.0, 7.0, 4.0, 2.0, 0.0, 9.0, 6.0, 9.0, 0.0, 8.0, 1.0, 4.0, 5.0, 4.0, 6.0, 6.0, 3.0, 0.0, 5.0, 9.0, 8.0, 4.0, 8.0, 0.0, 6.0, 9.0, 3.0, 8.0, 1.0, 1.0, 5.0, 7.0, 8.0, 7.0, 7.0, 8.0, 7.0, 8.0, 7.0, 10.0, 10.0, 10.0, 4.0, 9.0, 5.0, 3.0, 3.0, 6.0, 3.0, 6.0, 6.0, 7.0, 6.0, 10.0, 8.0, 0.0, 9.0, 6.0, 3.0, 9.0, 7.0, 9.0, 5.0, 5.0, 11.0, 11.0, 10.0, 7.0, 8.0, 0.0, 11.0, 6.0, 10.0, 6.0, 1.0, 9.0, 5.0, 11.0, 9.0, 11.0, 12.0, 4.0, 1.0, 12.0, 12.0, 11.0, 12.0, 8.0, 10.0, 10.0, 7.0, 7.0, 0.0, 8.0, 10.0, 9.0, 10.0, 0.0, 6.0, 12.0, 10.0, 8.0, 9.0, 9.0, 7.0, 0.0, 7.0, 8.0, 8.0, 13.0, 13.0, 7.0, 0.0, 13.0, 11.0, 2.0, 13.0, 4.0, 7.0, 0.0, 9.0, 11.0, 4.0, 13.0, 4.0, 12.0, 13.0, 9.0, 8.0, 11.0, 14.0, 13.0, 12.0, 3.0, 9.0, 10.0, 12.0, 14.0, 14.0, 12.0, 13.0, 10.0, 13.0, 7.0, 11.0, 11.0, 13.0, 7.0, 14.0, 8.0, 9.0, 13.0, 13.0, 15.0, 2.0, 15.0, 14.0, 15.0, 10.0, 1.0, 6.0, 11.0, 13.0, 6.0, 13.0, 16.0, 14.0, 14.0, 16.0, 14.0, 11.0, 13.0, 16.0, 16.0, 11.0, 12.0, 5.0, 11.0, 12.0, 14.0, 13.0, 1.0, 5.0, 12.0, 16.0, 15.0, 9.0, 4.0, 14.0, 8.0, 15.0, 17.0, 16.0, 9.0, 15.0, 17.0, 17.0, 17.0, 17.0, 3.0, 17.0, 17.0, 15.0, 17.0, 8.0, 0.0, 17.0, 16.0, 14.0, 15.0, 18.0, 16.0, 8.0, 18.0, 13.0, 3.0, 15.0, 17.0, 17.0, 7.0, 16.0, 17.0, 16.0, 17.0, 15.0, 10.0, 18.0, 16.0, 13.0, 17.0, 13.0, 16.0, 8.0, 15.0, 19.0, 18.0, 17.0, 15.0, 19.0, 15.0, 19.0, 19.0, 19.0, 19.0, 16.0, 19.0, 19.0, 6.0, 10.0, 6.0, 16.0, 12.0, 3.0, 9.0, 16.0, 19.0, 20.0, 20.0, 20.0, 10.0, 19.0, 18.0, 20.0, 7.0, 15.0, 17.0, 20.0, 20.0, 20.0, 19.0, 9.0, 6.0, 17.0, 15.0, 18.0, 16.0, 21.0, 15.0, 16.0, 20.0, 17.0, 15.0, 17.0, 21.0, 20.0, 21.0, 21.0, 19.0, 19.0, 16.0, 18.0, 19.0, 21.0, 0.0, 15.0, 15.0, 19.0, 15.0, 18.0, 17.0, 20.0, 19.0, 19.0, 21.0, 14.0, 22.0, 18.0, 19.0, 22.0, 19.0, 17.0, 15.0, 21.0, 20.0, 18.0, 18.0, 9.0, 14.0, 12.0, 18.0, 20.0, 16.0, 23.0, 23.0, 23.0, 23.0, 22.0, 20.0, 23.0, 21.0, 9.0, 12.0, 24.0, 16.0, 24.0, 17.0, 23.0, 11.0, 21.0, 24.0, 22.0, 21.0, 24.0, 23.0, 22.0, 21.0, 24.0, 19.0, 21.0, 24.0, 23.0, 22.0, 20.0, 24.0, 13.0, 15.0, 23.0, 19.0, 7.0, 24.0, 23.0, 23.0, 24.0, 25.0, 25.0, 25.0, 23.0, 25.0, 22.0, 19.0, 20.0, 7.0, 18.0, 21.0, 22.0, 17.0, 22.0, 23.0, 25.0, 24.0, 16.0, 24.0, 24.0, 26.0, 20.0, 27.0, 15.0, 24.0, 23.0, 23.0, 23.0, 25.0, 25.0, 25.0, 24.0, 25.0, 27.0, 26.0, 20.0, 25.0, 19.0, 24.0, 20.0, 24.0, 17.0, 16.0, 21.0, 25.0, 16.0, 24.0, 24.0, 23.0, 21.0, 18.0, 26.0, 27.0, 25.0, 21.0, 25.0, 18.0, 28.0, 28.0, 24.0, 28.0, 22.0, 17.0, 19.0, 8.0, 26.0, 27.0, 26.0, 26.0, 27.0, 25.0, 28.0, 28.0, 27.0, 20.0, 28.0, 28.0, 25.0, 27.0, 29.0, 29.0, 21.0, 25.0, 26.0, 25.0, 23.0, 29.0, 27.0, 25.0, 20.0, 29.0, 30.0, 30.0, 20.0, 20.0, 27.0, 15.0, 25.0, 29.0, 26.0, 30.0, 30.0, 30.0, 30.0, 31.0, 24.0, 27.0, 25.0, 12.0, 28.0, 22.0, 22.0, 26.0, 23.0, 26.0, 25.0, 26.0, 26.0, 26.0, 31.0, 30.0, 24.0, 28.0, 31.0, 31.0, 31.0, 31.0, 28.0, 20.0, 21.0, 25.0, 29.0, 31.0, 25.0, 30.0, 16.0, 32.0, 32.0, 32.0, 28.0, 32.0, 32.0, 28.0, 31.0, 18.0, 33.0, 28.0, 25.0, 33.0, 29.0, 28.0, 31.0, 29.0, 31.0, 23.0, 21.0, 28.0, 29.0, 28.0, 34.0, 32.0, 30.0, 31.0, 34.0, 34.0, 26.0, 34.0, 32.0, 31.0, 34.0, 27.0, 34.0, 22.0, 26.0, 31.0, 30.0, 28.0, 28.0, 25.0, 33.0, 25.0, 30.0, 30.0, 32.0, 31.0, 34.0, 33.0, 31.0, 34.0, 26.0, 33.0, 17.0, 31.0, 36.0, 27.0, 19.0, 36.0, 26.0, 34.0, 33.0, 22.0, 34.0, 18.0, 33.0, 24.0, 36.0, 34.0, 36.0, 33.0, 36.0, 34.0, 22.0, 34.0, 32.0, 32.0, 33.0, 32.0, 30.0, 34.0, 33.0, 34.0, 28.0, 34.0, 33.0, 35.0, 37.0, 37.0, 36.0, 35.0, 37.0, 34.0, 27.0, 37.0, 37.0, 33.0, 33.0, 24.0, 31.0, 36.0, 28.0, 32.0, 31.0, 31.0, 33.0, 35.0, 38.0, 32.0, 34.0, 34.0, 31.0, 34.0, 38.0, 38.0, 31.0, 34.0, 33.0, 34.0, 29.0, 32.0, 34.0, 34.0, 37.0, 37.0, 22.0, 35.0, 37.0, 39.0, 30.0, 37.0, 25.0, 27.0, 36.0, 37.0, 36.0, 32.0, 38.0, 40.0, 38.0, 36.0, 38.0, 38.0, 38.0, 34.0, 29.0, 40.0, 38.0, 37.0, 40.0, 35.0, 36.0, 32.0, 38.0, 36.0, 40.0, 40.0, 26.0, 28.0, 39.0, 35.0, 31.0, 36.0, 38.0, 25.0, 39.0, 35.0, 31.0, 30.0, 35.0, 42.0, 42.0, 36.0, 34.0, 36.0, 40.0, 39.0, 41.0, 42.0, 42.0, 37.0, 37.0, 38.0, 41.0, 42.0, 42.0, 42.0, 37.0, 40.0, 40.0, 33.0, 42.0, 43.0, 38.0, 34.0, 43.0, 42.0, 33.0, 39.0, 43.0, 43.0, 36.0, 33.0, 38.0, 34.0, 33.0, 43.0, 34.0, 42.0, 40.0, 43.0, 40.0, 42.0, 38.0, 44.0, 44.0, 42.0, 34.0, 41.0, 31.0, 42.0, 44.0, 40.0, 42.0, 42.0, 44.0, 44.0, 33.0, 24.0, 44.0, 41.0, 39.0, 42.0, 44.0, 42.0, 38.0, 36.0, 40.0, 44.0, 42.0, 37.0, 43.0, 40.0, 34.0, 38.0, 38.0, 43.0, 40.0, 44.0, 34.0, 41.0, 45.0, 35.0, 40.0, 42.0, 43.0, 41.0, 44.0, 41.0, 46.0, 37.0, 46.0, 41.0, 44.0, 39.0, 44.0, 46.0, 39.0, 37.0, 45.0, 37.0, 44.0, 39.0, 43.0, 43.0, 40.0, 43.0, 36.0, 45.0, 38.0, 44.0, 47.0, 46.0, 47.0, 47.0, 46.0, 46.0, 47.0, 47.0, 47.0, 33.0, 29.0, 36.0, 42.0, 45.0, 47.0, 48.0, 48.0, 45.0, 41.0, 44.0, 41.0, 38.0, 45.0, 37.0, 48.0, 35.0, 45.0, 48.0, 46.0, 49.0, 41.0, 41.0, 43.0, 48.0, 49.0, 39.0, 45.0, 48.0, 46.0, 47.0, 44.0, 47.0, 49.0, 49.0, 47.0, 48.0, 47.0, 47.0, 46.0, 49.0, 47.0, 46.0, 42.0, 29.0, 49.0, 40.0, 46.0, 47.0, 37.0, 37.0, 42.0, 43.0, 48.0, 47.0, 46.0, 46.0, 50.0, 47.0, 48.0, 50.0, 46.0, 33.0, 40.0, 45.0, 45.0, 47.0, 45.0, 51.0, 45.0, 49.0, 50.0, 50.0, 47.0, 50.0, 51.0, 43.0, 42.0, 48.0, 52.0, 40.0, 50.0, 50.0, 45.0, 45.0, 52.0, 50.0, 38.0, 51.0, 50.0, 39.0, 52.0, 48.0, 50.0, 46.0, 52.0, 52.0, 44.0, 46.0, 45.0, 50.0, 44.0, 47.0, 42.0, 42.0, 51.0, 44.0, 53.0, 49.0, 53.0, 53.0, 52.0, 52.0, 50.0, 53.0, 36.0, 53.0, 42.0, 53.0, 50.0, 51.0, 49.0, 48.0, 46.0, 41.0, 38.0, 54.0, 54.0, 52.0, 54.0, 54.0, 51.0, 47.0, 52.0, 49.0, 54.0, 41.0, 50.0, 54.0, 44.0, 53.0, 51.0, 49.0, 53.0, 52.0, 51.0, 55.0, 51.0, 53.0, 53.0, 55.0, 55.0, 52.0, 56.0, 46.0, 51.0, 48.0, 49.0, 56.0, 51.0, 56.0, 50.0, 55.0, 55.0, 51.0, 56.0, 39.0, 56.0, 41.0, 52.0, 56.0, 53.0, 56.0, 56.0, 54.0, 56.0, 55.0, 49.0, 50.0, 54.0, 53.0, 52.0, 56.0, 50.0, 49.0, 52.0, 53.0, 54.0, 53.0, 50.0, 56.0, 52.0, 57.0, 56.0, 54.0, 57.0, 57.0, 45.0, 53.0, 51.0, 54.0, 55.0, 57.0, 54.0, 56.0, 57.0, 53.0, 53.0, 55.0, 52.0, 52.0, 57.0, 56.0, 46.0, 54.0, 54.0, 51.0, 53.0, 48.0, 56.0, 56.0, 57.0, 54.0, 56.0, 46.0, 49.0, 59.0, 56.0, 59.0, 53.0, 59.0, 50.0, 57.0, 51.0, 58.0, 55.0, 59.0, 51.0, 57.0, 59.0, 55.0, 59.0, 59.0, 59.0, 57.0, 50.0, 47.0, 56.0, 60.0, 60.0, 60.0, 59.0, 60.0, 58.0, 55.0, 54.0, 50.0, 55.0, 58.0, 59.0, 52.0, 54.0, 58.0, 54.0, 56.0, 57.0, 53.0, 57.0, 53.0, 58.0, 59.0, 61.0, 55.0, 61.0, 60.0, 55.0, 59.0, 61.0, 61.0, 60.0, 61.0, 49.0, 62.0, 53.0, 53.0, 53.0, 55.0, 47.0, 61.0, 57.0, 60.0, 62.0, 51.0, 57.0, 60.0, 60.0, 62.0, 58.0, 60.0, 60.0, 55.0, 62.0, 62.0, 62.0, 60.0, 54.0, 57.0, 59.0, 57.0, 60.0, 58.0, 62.0, 63.0, 62.0, 61.0, 63.0, 63.0, 63.0, 52.0, 63.0, 58.0, 58.0, 52.0, 56.0, 55.0, 50.0, 54.0, 59.0, 46.0, 60.0, 62.0, 61.0, 64.0, 61.0, 52.0, 59.0, 59.0, 62.0, 62.0, 59.0, 64.0, 58.0, 63.0, 61.0, 65.0, 65.0, 65.0, 55.0, 64.0, 57.0, 62.0, 51.0, 61.0, 64.0, 62.0, 57.0, 53.0, 61.0, 42.0, 54.0, 62.0, 63.0, 63.0, 65.0, 65.0, 65.0, 61.0, 58.0, 53.0, 55.0, 60.0, 66.0, 66.0, 47.0, 64.0, 52.0, 64.0, 65.0, 59.0, 52.0, 66.0, 65.0, 63.0, 52.0, 62.0, 66.0, 63.0, 63.0, 62.0, 57.0, 67.0, 65.0, 67.0, 65.0, 61.0, 67.0, 62.0, 60.0, 67.0, 63.0, 56.0, 67.0, 57.0, 52.0, 65.0, 62.0, 57.0, 63.0, 66.0, 52.0, 63.0, 55.0, 64.0, 65.0, 62.0, 63.0, 68.0, 68.0, 66.0, 67.0, 59.0, 66.0, 64.0, 61.0, 58.0, 65.0, 64.0, 69.0, 64.0, 67.0, 69.0, 58.0, 67.0, 59.0, 62.0, 62.0, 68.0, 69.0, 62.0, 66.0, 67.0, 69.0, 69.0, 63.0, 68.0, 66.0, 59.0, 67.0, 61.0, 66.0, 70.0, 67.0, 70.0, 69.0, 70.0, 63.0, 66.0, 69.0, 69.0, 69.0, 67.0, 69.0, 64.0, 65.0, 65.0, 65.0, 64.0, 65.0, 62.0, 67.0, 68.0, 64.0, 59.0, 69.0, 66.0, 65.0, 69.0, 71.0, 70.0, 68.0, 67.0, 61.0, 67.0, 58.0, 72.0, 63.0, 69.0, 65.0, 72.0, 72.0, 70.0, 67.0, 64.0, 68.0, 70.0, 61.0, 72.0, 70.0, 72.0, 70.0, 68.0, 72.0, 68.0, 68.0, 62.0, 72.0, 60.0, 71.0, 62.0, 70.0, 70.0, 62.0, 55.0, 71.0, 68.0, 72.0, 70.0, 68.0, 73.0, 69.0, 67.0, 73.0, 60.0, 68.0, 67.0, 62.0, 69.0, 68.0, 70.0, 66.0, 69.0, 68.0, 71.0, 73.0, 74.0, 72.0, 74.0, 68.0, 64.0, 74.0, 73.0, 65.0, 73.0, 70.0, 67.0, 72.0, 71.0, 70.0, 74.0, 73.0, 73.0, 70.0, 69.0, 67.0, 75.0, 76.0, 72.0, 71.0, 72.0, 73.0, 72.0, 74.0, 71.0, 76.0, 76.0, 71.0, 71.0, 75.0, 72.0, 69.0, 75.0, 68.0, 59.0, 71.0, 73.0, 77.0, 68.0, 62.0, 74.0, 72.0, 76.0, 68.0, 74.0, 76.0, 73.0, 75.0, 77.0, 72.0, 73.0, 76.0, 69.0, 71.0, 69.0, 76.0, 65.0, 77.0, 70.0, 76.0, 77.0, 72.0, 77.0, 75.0, 72.0, 78.0, 74.0, 78.0, 77.0, 78.0, 74.0, 76.0, 75.0, 73.0, 79.0, 71.0, 78.0, 72.0, 64.0, 71.0, 76.0, 77.0, 78.0, 77.0, 75.0, 73.0, 79.0, 76.0, 79.0, 72.0, 74.0, 72.0, 78.0, 77.0, 78.0, 78.0, 74.0, 78.0, 64.0, 78.0, 75.0, 78.0, 79.0, 76.0, 77.0, 78.0, 78.0, 80.0, 78.0, 80.0, 78.0, 77.0, 77.0, 79.0, 78.0, 71.0, 77.0, 81.0, 69.0, 79.0, 75.0, 79.0, 75.0, 71.0, 77.0, 69.0, 57.0, 74.0, 78.0, 76.0, 81.0, 78.0, 80.0, 81.0, 75.0, 68.0, 80.0, 80.0, 61.0, 77.0, 82.0, 75.0, 82.0, 78.0, 77.0, 74.0, 81.0, 81.0, 77.0, 77.0, 82.0, 78.0, 79.0, 81.0, 78.0, 76.0, 82.0, 76.0, 83.0, 78.0, 78.0, 82.0, 83.0, 83.0, 83.0, 83.0, 83.0, 78.0, 68.0, 71.0, 79.0, 81.0, 74.0, 79.0, 83.0, 80.0, 81.0, 79.0, 82.0, 76.0, 84.0, 78.0, 82.0, 74.0, 76.0, 84.0, 80.0, 81.0, 80.0, 71.0, 78.0, 79.0, 79.0, 84.0, 82.0, 75.0, 79.0, 77.0, 81.0, 84.0, 77.0, 79.0, 82.0, 81.0, 80.0, 83.0, 82.0, 85.0, 75.0, 82.0, 83.0, 84.0, 85.0, 85.0, 80.0, 84.0, 83.0, 85.0, 83.0, 79.0, 80.0, 84.0, 78.0, 86.0, 81.0, 75.0, 74.0, 84.0, 80.0, 80.0, 74.0, 87.0, 84.0, 87.0, 73.0, 87.0, 86.0, 86.0, 82.0, 76.0, 85.0, 82.0, 75.0, 87.0, 85.0, 86.0, 80.0, 85.0, 87.0, 78.0, 73.0, 83.0, 85.0, 85.0, 87.0, 87.0, 88.0, 88.0, 81.0, 77.0, 83.0, 78.0, 81.0, 87.0, 80.0, 87.0, 87.0, 85.0, 86.0, 86.0, 89.0, 83.0, 89.0, 85.0, 85.0, 89.0, 82.0, 90.0, 89.0, 86.0, 85.0, 89.0, 87.0, 83.0, 81.0, 80.0, 90.0, 87.0, 90.0, 89.0, 86.0, 82.0, 84.0, 70.0, 80.0, 85.0, 85.0, 88.0, 91.0, 87.0, 83.0, 91.0, 90.0, 91.0, 91.0, 89.0, 91.0, 90.0, 91.0, 88.0, 82.0, 88.0, 88.0, 82.0, 86.0, 77.0, 88.0, 83.0, 89.0, 82.0, 87.0, 87.0, 92.0, 91.0, 89.0, 89.0, 86.0, 92.0, 91.0, 79.0, 93.0, 90.0, 90.0, 83.0, 92.0, 88.0, 88.0, 93.0, 89.0, 93.0, 91.0, 93.0, 92.0, 92.0, 93.0, 90.0, 88.0, 93.0, 89.0, 80.0, 84.0, 84.0, 92.0, 91.0, 86.0, 93.0, 88.0, 92.0, 83.0, 92.0, 85.0, 94.0, 94.0, 89.0, 94.0, 92.0, 94.0, 91.0, 93.0, 90.0, 89.0, 91.0, 90.0, 95.0, 79.0, 92.0, 86.0, 89.0, 90.0, 92.0, 95.0, 95.0, 92.0, 95.0, 94.0, 91.0, 93.0, 92.0, 93.0, 91.0, 96.0, 93.0, 95.0, 94.0, 96.0, 93.0, 88.0, 94.0, 86.0, 88.0, 87.0, 93.0, 96.0, 80.0, 94.0, 83.0, 92.0, 93.0, 91.0, 95.0, 92.0, 84.0, 90.0, 93.0, 92.0, 97.0, 84.0, 91.0, 95.0, 92.0, 97.0, 92.0, 97.0, 89.0, 92.0, 89.0, 92.0, 93.0, 97.0, 90.0, 85.0, 94.0, 96.0, 83.0, 97.0, 95.0, 93.0, 92.0, 88.0, 93.0, 85.0, 94.0, 95.0, 98.0, 95.0, 97.0, 97.0, 91.0, 92.0, 92.0, 89.0, 97.0, 97.0, 91.0, 98.0, 92.0, 95.0, 97.0, 94.0, 90.0, 96.0, 97.0, 98.0, 90.0, 99.0, 91.0, 97.0, 99.0, 95.0, 93.0, 95.0, 96.0, 90.0, 99.0, 99.0, 100.0, 95.0, 95.0, 97.0, 97.0, 98.0, 98.0, 92.0, 94.0, 100.0, 99.0, 98.0, 97.0, 97.0, 95.0, 99.0, 100.0, 97.0], "slack": [0.0, -2.0, 0.0, 0.0, 0.0, 0.0, 0.0, -2.0, 0.0, 0.0, 0.0, -2.0, 0.0, -1.0, 0.0, -1.0, 0.0, 0.0, 0.0, -1.0, -1.0, -2.0, -1.0, 0.0, 0.0, 0.0, 0.0, 0.0, 0.0, -1.0, -1.0, -1.0, 0.0, 0.0, 0.0, -1.0, 0.0, 0.0, 0.0, -1.0, 0.0, 0.0, 0.0, 0.0, 0.0, 0.0, 0.0, 0.0, 0.0, 0.0, -1.0, 0.0, -1.0, 0.0, 0.0, -1.0, 0.0, 0.0, 0.0, 0.0, -1.0, 0.0, 0.0, 0.0, 0.0, -3.0, 0.0, 0.0, -2.0, -1.0, -1.0, 0.0, -1.0, 0.0, 0.0, 0.0, -1.0, 0.0, 0.0, -1.0, 0.0, 0.0, 0.0, 0.0, -2.0, -2.0, 0.0, 0.0, 0.0, 0.0, -1.0, -1.0, 0.0, 0.0, 0.0, 0.0, 0.0, 0.0, -1.0, 0.0, -1.0, 0.0, 0.0, -1.0, 0.0, 0.0, 0.0, 0.0, -1.0, 0.0, 0.0, 0.0, 0.0, -1.0, -2.0, -1.0, 0.0, 0.0, -2.0, 0.0, 0.0, 0.0, 0.0, 0.0, 0.0, 0.0, 0.0, 0.0, 0.0, 0.0, -1.0, -1.0, -1.0, -1.0, 0.0, 0.0, 0.0, 0.0, 0.0, 0.0, 0.0, 0.0, -1.0, -1.0, 0.0, 0.0, 0.0, -1.0, 0.0, 0.0, 0.0, 0.0, 0.0, 0.0, 0.0, 0.0, 0.0, 0.0, 0.0, 0.0, 0.0, 0.0, 0.0, 0.0, 0.0, 0.0, 0.0, -2.0, -1.0, -1.0, 0.0, 0.0, -1.0, -2.0, -2.0, 0.0, 0.0, -1.0, -1.0, 0.0, 0.0, 0.0, 0.0, 0.0, 0.0, -1.0, 0.0, 0.0, 0.0, -2.0, 0.0, 0.0, -1.0, 0.0, -1.0, 0.0, -1.0, -2.0, 0.0, 0.0], "density": 0.0200375, "feasible": true, "X_len": 56, "mode": "AAD", "factor": 0, "obj_val": 226.0, "x": [1.0, 1.0, 1.0, 0.0, 1.0, 0.0, 0.0, 0.0, 0.0, 0.0, 1.0, 1.0, 0.0, 0.0, 0.0, 1.0, 1.0, 1.0, 0.0, 1.0, 1.0, 1.0, 0.0, 1.0, 1.0, 0.0, 0.0, 0.0, 1.0, 1.0, 1.0, 0.0, 0.0, 0.0, 0.0, 1.0, 0.0, 0.0, 0.0, 0.0, 0.0, 0.0, 1.0, 1.0, 1.0, 0.0, 0.0, 1.0, 1.0, 0.0, 1.0, 1.0, 0.0, 1.0, 1.0, 0.0, 1.0, 0.0, 1.0, 1.0, 1.0, 0.0, 1.0, 0.0, 1.0, 0.0, 0.0, 1.0, 1.0, 0.0, 0.0, 0.0, 0.0, 1.0, 0.0, 0.0, 0.0, 0.0, 0.0, 0.0, 0.0, 1.0, 0.0, 0.0, 0.0, 1.0, 0.0, 0.0, 0.0, 0.0, 0.0, 0.0, 1.0, 0.0, 0.0, 0.0, 1.0, 1.0, 0.0, 0.0, 1.0, 0.0, 1.0, 0.0, 0.0, 0.0, 1.0, 0.0, 0.0, 1.0, 0.0, 0.0, 0.0, 0.0, 1.0, 0.0, 0.0, 1.0, 0.0, 0.0, 0.0, 0.0, 0.0, 0.0, 0.0, 1.0, 1.0, 1.0, 1.0, 0.0, 0.0, 0.0, 0.0, 0.0, 0.0, 0.0, 0.0, 0.0, 0.0, 0.0, 0.0, 0.0, 0.0, 0.0, 0.0, 0.0, 0.0, 0.0, 0.0, 0.0, 0.0, 0.0, 0.0, 0.0, 0.0, 0.0, 0.0, 0.0, 0.0, 0.0, 0.0, 0.0, 1.0, 0.0, 0.0, 0.0, 1.0, 0.0, 0.0, 0.0, 0.0, 0.0, 0.0, 0.0, 0.0, 0.0, 0.0, 0.0, 0.0, 0.0, 0.0, 0.0, 0.0, 0.0, 0.0, 0.0, 0.0, 0.0, 0.0, 0.0, 0.0, 0.0, 0.0, 0.0, 0.0, 0.0, 0.0, 0.0, 0.0, 0.0, 0.0, 0.0, 0.0, 0.0, 0.0, 0.0, 0.0, 0.0, 0.0, 0.0, 0.0, 0.0, 0.0, 0.0, 0.0, 0.0, 0.0, 0.0, 0.0, 0.0, 0.0, 0.0, 0.0, 0.0, 0.0, 0.0, 0.0, 0.0, 0.0, 0.0, 0.0, 0.0, 0.0, 0.0, 0.0, 0.0, 0.0, 0.0, 0.0, 0.0, 0.0, 0.0, 0.0, 0.0, 0.0, 0.0, 0.0, 0.0, 0.0, 0.0, 0.0, 0.0, 0.0, 0.0, 0.0, 0.0, 0.0, 0.0, 0.0, 0.0, 0.0, 0.0, 0.0, 0.0, 0.0, 0.0, 0.0, 0.0, 0.0, 0.0, 0.0, 0.0, 0.0, 0.0, 0.0, 0.0, 0.0, 0.0, 0.0, 0.0, 0.0, 0.0, 0.0, 1.0, 0.0, 0.0, 0.0, 0.0, 0.0, 0.0, 0.0, 0.0, 0.0, 0.0, 0.0, 0.0, 0.0, 0.0, 0.0, 0.0, 0.0, 0.0, 0.0, 0.0, 0.0, 0.0, 0.0, 0.0, 0.0, 0.0, 0.0, 0.0, 0.0, 0.0, 0.0, 0.0, 0.0, 0.0, 0.0, 0.0, 0.0, 0.0, 0.0, 0.0, 0.0, 0.0, 0.0, 0.0, 0.0, 0.0, 0.0, 0.0, 0.0, 0.0, 0.0, 0.0, 0.0, 0.0, 0.0, 0.0, 0.0, 0.0, 0.0, 0.0, 0.0, 0.0, 0.0, 0.0, 0.0, 0.0, 0.0, 0.0, 0.0, 0.0, 0.0, 0.0, 0.0, 0.0, 0.0, 0.0, 0.0, 0.0, 0.0, 0.0, 0.0, 0.0, 0.0, 0.0, 0.0, 0.0, 0.0, 0.0, 0.0, 0.0, 0.0, 0.0, 0.0, 0.0, 0.0, 0.0, 0.0, 0.0, 0.0, 1.0, 0.0, 0.0, 0.0, 0.0, 0.0, 0.0, 0.0, 0.0, 0.0, 0.0, 0.0, 0.0, 0.0, 0.0, 0.0, 0.0, 0.0, 0.0, 0.0, 0.0, 0.0, 0.0, 0.0, 0.0, 0.0, 0.0, 0.0, 0.0, 0.0, 0.0, 0.0, 0.0, 0.0, 0.0, 0.0, 0.0, 0.0, 0.0, 0.0, 0.0, 0.0, 0.0, 0.0, 0.0, 0.0, 0.0, 0.0, 0.0, 0.0, 0.0, 0.0, 0.0, 0.0, 0.0, 0.0, 0.0, 0.0, 0.0, 0.0, 0.0, 0.0, 0.0, 0.0, 0.0, 0.0, 0.0, 0.0, 0.0, 0.0, 0.0, 0.0, 0.0, 0.0, 0.0, 0.0, 0.0, 0.0, 0.0, 0.0, 0.0, 0.0, 0.0, 0.0, 0.0, 0.0, 0.0, 0.0, 1.0, 0.0, 0.0, 0.0, 0.0, 0.0, 0.0, 0.0, 0.0, 0.0, 0.0, 0.0, 0.0, 0.0, 0.0, 0.0, 0.0, 0.0, 0.0, 0.0, 0.0, 0.0, 0.0, 0.0, 0.0, 0.0, 0.0, 0.0, 0.0, 0.0, 0.0, 0.0, 0.0, 0.0, 0.0, 0.0, 0.0, 0.0, 0.0, 0.0, 0.0, 0.0, 0.0, 0.0, 0.0, 0.0, 0.0, 0.0, 0.0, 0.0, 0.0, 0.0, 0.0, 0.0, 0.0, 0.0, 0.0, 0.0, 0.0, 0.0, 0.0, 0.0, 0.0, 0.0, 0.0, 0.0, 0.0, 0.0, 0.0, 0.0, 0.0, 0.0, 0.0, 0.0, 0.0, 0.0, 0.0, 0.0, 0.0, 0.0, 0.0, 0.0, 0.0, 0.0, 0.0, 0.0, 0.0, 0.0, 0.0, 0.0, 0.0, 0.0, 0.0, 0.0, 0.0, 0.0, 0.0, 0.0, 0.0, 0.0, 0.0, 0.0, 0.0, 0.0, 0.0, 0.0, 0.0, 0.0, 0.0, 0.0, 0.0, 0.0, 0.0, 0.0, 0.0, 0.0, 0.0, 0.0, 0.0, 0.0, 0.0, 0.0, 0.0, 0.0, 0.0, 0.0, 0.0, 0.0, 0.0, 0.0, 0.0, 0.0, 0.0, 0.0, 0.0, 0.0, 0.0, 0.0, 0.0, 0.0, 0.0, 0.0, 0.0, 0.0, 0.0, 0.0, 0.0, 0.0, 0.0, 0.0, 0.0, 0.0, 0.0, 0.0, 0.0, 0.0, 0.0, 0.0, 0.0, 0.0, 0.0, 0.0, 0.0, 0.0, 0.0, 0.0, 0.0, 0.0, 0.0, 0.0, 0.0, 0.0, 0.0, 0.0, 0.0, 0.0, 0.0, 0.0, 0.0, 0.0, 0.0, 0.0, 0.0, 0.0, 0.0, 0.0, 0.0, 0.0, 0.0, 0.0, 0.0, 0.0, 0.0, 0.0, 0.0, 0.0, 0.0, 0.0, 0.0, 0.0, 0.0, 0.0, 0.0, 0.0, 0.0, 0.0, 0.0, 0.0, 0.0, 0.0, 0.0, 0.0, 0.0, 0.0, 0.0, 0.0, 0.0, 0.0, 0.0, 0.0, 0.0, 0.0, 0.0, 0.0, 0.0, 0.0, 0.0, 0.0, 0.0, 0.0, 0.0, 0.0, 0.0, 0.0, 0.0, 0.0, 0.0, 0.0, 0.0, 0.0, 0.0, 0.0, 0.0, 0.0, 0.0, 0.0, 0.0, 0.0, 0.0, 0.0, 0.0, 0.0, 0.0, 0.0, 0.0, 0.0, 0.0, 0.0, 0.0, 0.0, 0.0, 0.0, 0.0, 0.0, 0.0, 0.0, 0.0, 0.0, 0.0, 0.0, 0.0, 0.0, 0.0, 0.0, 0.0, 0.0, 0.0, 0.0, 0.0, 0.0, 0.0, 0.0, 0.0, 0.0, 0.0, 0.0, 0.0, 0.0, 0.0, 0.0, 0.0, 0.0, 0.0, 0.0, 0.0, 0.0, 0.0, 0.0, 0.0, 0.0, 0.0, 0.0, 0.0, 0.0, 0.0, 0.0, 0.0, 0.0, 0.0, 0.0, 0.0, 0.0, 0.0, 0.0, 0.0, 0.0, 0.0, 0.0, 0.0, 0.0, 0.0, 0.0, 0.0, 0.0, 0.0, 0.0, 0.0, 0.0, 0.0, 0.0, 0.0, 0.0, 0.0, 0.0, 0.0, 0.0, 0.0, 0.0, 0.0, 0.0, 0.0, 0.0, 0.0, 0.0, 0.0, 0.0, 0.0, 0.0, 0.0, 0.0, 0.0, 0.0, 0.0, 0.0, 0.0, 0.0, 0.0, 0.0, 0.0, 0.0, 0.0, 0.0, 0.0, 0.0, 0.0, 0.0, 0.0, 0.0, 0.0, 0.0, 0.0, 0.0, 0.0, 0.0, 0.0, 0.0, 0.0, 0.0, 0.0, 0.0, 0.0, 0.0, 0.0, 0.0, 0.0, 0.0, 0.0, 0.0, 0.0, 0.0, 0.0, 0.0, 0.0, 0.0, 0.0, 0.0, 0.0, 0.0, 0.0, 0.0, 0.0, 0.0, 0.0, 0.0, 0.0, 0.0, 0.0, 0.0, 0.0, 0.0, 0.0, 0.0, 0.0, 0.0, 0.0, 0.0, 0.0, 0.0, 0.0, 0.0, 0.0, 0.0, 0.0, 0.0, 0.0, 0.0, 0.0, 0.0, 0.0, 0.0, 0.0, 0.0, 0.0, 0.0, 0.0, 0.0, 0.0, 0.0, 0.0, 0.0, 0.0, 0.0, 0.0, 0.0, 0.0, 0.0, 0.0, 0.0, 0.0, 0.0, 0.0, 0.0, 0.0, 0.0, 0.0, 0.0, 0.0, 0.0, 0.0, 0.0, 0.0, 0.0, 0.0, 0.0, 0.0, 0.0, 0.0, 0.0, 0.0, 0.0, 0.0, 0.0, 0.0, 0.0, 0.0, 0.0, 0.0, 0.0, 0.0, 0.0, 0.0, 0.0, 0.0, 0.0, 0.0, 0.0, 0.0, 0.0, 0.0, 0.0, 0.0, 0.0, 0.0, 0.0, 0.0, 0.0, 0.0, 0.0, 0.0, 0.0, 0.0, 0.0, 0.0, 0.0, 0.0, 0.0, 0.0, 0.0, 0.0, 0.0, 0.0, 0.0, 0.0, 0.0, 0.0, 0.0, 0.0, 0.0, 0.0, 0.0, 0.0, 0.0, 0.0, 0.0, 0.0, 0.0, 0.0, 0.0, 0.0, 0.0, 0.0, 0.0, 0.0, 0.0, 0.0, 0.0, 0.0, 0.0, 0.0, 0.0, 0.0, 0.0, 0.0, 0.0, 0.0, 0.0, 0.0, 0.0, 0.0, 0.0, 0.0, 0.0, 0.0, 0.0, 0.0, 0.0, 0.0, 0.0, 0.0, 0.0, 0.0, 0.0, 0.0, 0.0, 0.0, 0.0, 0.0, 0.0, 0.0, 0.0, 0.0, 0.0, 0.0, 0.0, 0.0, 0.0, 0.0, 0.0, 0.0, 0.0, 0.0, 0.0, 0.0, 0.0, 0.0, 0.0, 0.0, 0.0, 0.0, 0.0, 0.0, 0.0, 0.0, 0.0, 0.0, 0.0, 0.0, 0.0, 0.0, 0.0, 0.0, 0.0, 0.0, 0.0, 0.0, 0.0, 0.0, 0.0, 0.0, 0.0, 0.0, 0.0, 0.0, 0.0, 0.0, 0.0, 0.0, 0.0, 0.0, 0.0, 0.0, 0.0, 0.0, 0.0, 0.0, 0.0, 0.0, 0.0, 0.0, 0.0, 0.0, 0.0, 0.0, 0.0, 0.0, 0.0, 0.0, 0.0, 0.0, 0.0, 0.0, 0.0, 0.0, 0.0, 0.0, 0.0, 0.0, 0.0, 0.0, 0.0, 0.0, 0.0, 0.0, 0.0, 0.0, 0.0, 0.0, 0.0, 0.0, 0.0, 0.0, 0.0, 0.0, 0.0, 0.0, 0.0, 0.0, 0.0, 0.0, 0.0, 0.0, 0.0, 0.0, 0.0, 0.0, 0.0, 0.0, 0.0, 0.0, 0.0, 0.0, 0.0, 0.0, 0.0, 0.0, 0.0, 0.0, 0.0, 0.0, 0.0, 0.0, 0.0, 0.0, 0.0, 0.0, 0.0, 0.0, 0.0, 0.0, 0.0, 0.0, 0.0, 0.0, 0.0, 0.0, 0.0, 0.0, 0.0, 0.0, 0.0, 0.0, 0.0, 0.0, 0.0, 0.0, 0.0, 0.0, 0.0, 0.0, 0.0, 0.0, 0.0, 0.0, 0.0, 0.0, 0.0, 0.0, 0.0, 0.0, 0.0, 0.0, 0.0, 0.0, 0.0, 0.0, 0.0, 0.0, 0.0, 0.0, 0.0, 0.0, 0.0, 0.0, 0.0, 0.0, 0.0, 0.0, 0.0, 0.0, 0.0, 0.0, 0.0, 0.0, 0.0, 0.0, 0.0, 0.0, 0.0, 0.0, 0.0, 0.0, 0.0, 0.0, 0.0, 0.0, 0.0, 0.0, 0.0, 0.0, 0.0, 0.0, 0.0, 0.0, 0.0, 0.0, 0.0, 0.0, 0.0, 0.0, 0.0, 0.0, 0.0, 0.0, 0.0, 0.0, 0.0, 0.0, 0.0, 0.0, 0.0, 0.0, 0.0, 0.0, 0.0, 0.0, 0.0, 0.0, 0.0, 0.0, 0.0, 0.0, 0.0, 0.0, 0.0, 0.0, 0.0, 0.0, 0.0, 0.0, 0.0, 0.0, 0.0, 0.0, 0.0, 0.0, 0.0, 0.0, 0.0, 0.0, 0.0, 0.0, 0.0, 0.0, 0.0, 0.0, 0.0, 0.0, 0.0, 0.0, 0.0, 0.0, 0.0, 0.0, 0.0, 0.0, 0.0, 0.0, 0.0, 0.0, 0.0, 0.0, 0.0, 0.0, 0.0, 0.0, 0.0, 0.0, 0.0, 0.0, 0.0, 0.0, 0.0, 0.0, 0.0, 0.0, 0.0, 0.0, 0.0, 0.0, 0.0, 0.0, 0.0, 0.0, 0.0, 0.0, 0.0, 0.0, 0.0, 0.0, 0.0, 0.0, 0.0, 0.0, 0.0, 0.0, 0.0, 0.0, 0.0, 0.0, 0.0, 0.0, 0.0, 0.0, 0.0, 0.0, 0.0, 0.0, 0.0, 0.0, 0.0, 0.0, 0.0, 0.0, 0.0, 0.0, 0.0, 0.0, 0.0, 0.0, 0.0, 0.0, 0.0, 0.0, 0.0, 0.0, 0.0, 0.0, 0.0, 0.0, 0.0, 0.0, 0.0, 0.0, 0.0, 0.0, 0.0, 0.0, 0.0, 0.0, 0.0, 0.0, 0.0, 0.0, 0.0, 0.0, 0.0, 0.0, 0.0, 0.0, 0.0, 0.0, 0.0, 0.0, 0.0, 0.0, 0.0, 0.0, 0.0, 0.0, 0.0, 0.0, 0.0, 0.0, 0.0, 0.0, 0.0, 0.0, 0.0, 0.0, 0.0, 0.0, 0.0, 0.0, 0.0, 0.0, 0.0, 0.0, 0.0, 0.0, 0.0, 0.0, 0.0, 0.0, 0.0, 0.0, 0.0, 0.0, 0.0, 0.0, 0.0, 0.0, 0.0, 0.0, 0.0, 0.0, 0.0, 0.0, 0.0, 0.0, 0.0, 0.0, 0.0, 0.0, 0.0, 0.0, 0.0, 0.0, 0.0, 0.0, 0.0, 0.0, 0.0, 0.0, 0.0, 0.0, 0.0, 0.0, 0.0, 0.0, 0.0, 0.0, 0.0, 0.0, 0.0, 0.0, 0.0, 0.0, 0.0, 0.0, 0.0, 0.0, 0.0, 0.0, 0.0, 0.0, 0.0, 0.0, 0.0, 0.0, 0.0, 0.0, 0.0, 0.0, 0.0, 0.0, 0.0, 0.0, 0.0, 0.0, 0.0, 0.0, 0.0, 0.0, 0.0, 0.0, 0.0, 0.0, 0.0, 0.0, 0.0, 0.0, 0.0, 0.0, 0.0, 0.0, 0.0, 0.0, 0.0, 0.0, 0.0, 0.0, 0.0, 0.0, 0.0, 0.0, 0.0, 0.0, 0.0, 0.0, 0.0, 0.0, 0.0, 0.0, 0.0, 0.0, 0.0, 0.0, 0.0, 0.0, 0.0, 0.0, 0.0, 0.0, 0.0, 0.0, 0.0, 0.0, 0.0, 0.0, 0.0, 0.0, 0.0, 0.0, 0.0, 0.0, 0.0, 0.0, 0.0, 0.0, 0.0, 0.0, 0.0, 0.0, 0.0, 0.0, 0.0, 0.0, 0.0, 0.0, 0.0, 0.0, 0.0, 0.0, 0.0, 0.0, 0.0, 0.0, 0.0, 0.0, 0.0, 0.0, 0.0, 0.0, 0.0, 0.0, 0.0, 0.0, 0.0, 0.0, 0.0, 0.0, 0.0, 0.0, 0.0, 0.0, 0.0, 0.0, 0.0, 0.0, 0.0, 0.0, 0.0, 0.0, 0.0, 0.0, 0.0, 0.0, 0.0, 0.0, 0.0, 0.0, 0.0, 0.0, 0.0, 0.0, 0.0, 0.0, 0.0, 0.0, 0.0, 0.0, 0.0, 0.0, 0.0, 0.0, 0.0, 0.0, 0.0, 0.0, 0.0, 0.0, 0.0, 0.0, 0.0, 0.0, 0.0, 0.0, 0.0, 0.0, 0.0, 0.0, 0.0, 0.0, 0.0, 0.0, 0.0, 0.0, 0.0, 0.0, 0.0, 0.0, 0.0, 0.0, 0.0, 0.0, 0.0, 0.0, 0.0, 0.0, 0.0, 0.0, 0.0, 0.0, 0.0, 0.0, 0.0, 0.0, 0.0, 0.0, 0.0, 0.0, 0.0, 0.0, 0.0, 0.0, 0.0, 0.0, 0.0, 0.0, 0.0, 0.0, 0.0, 0.0, 0.0, 0.0, 0.0, 0.0, 0.0, 0.0, 0.0, 0.0, 0.0, 0.0, 0.0, 0.0, 0.0, 0.0, 0.0, 0.0, 0.0, 0.0, 0.0, 0.0, 0.0, 0.0, 0.0, 0.0, 0.0, 0.0, 0.0, 0.0, 0.0, 0.0, 0.0, 0.0, 0.0, 0.0, 0.0, 0.0, 0.0, 0.0, 0.0, 0.0, 0.0, 0.0, 0.0, 0.0, 0.0, 0.0, 0.0, 0.0, 0.0, 0.0, 0.0, 0.0, 0.0, 0.0, 0.0, 0.0, 0.0, 0.0, 0.0, 0.0, 0.0, 0.0, 0.0, 0.0, 0.0, 0.0, 0.0, 0.0, 0.0, 0.0, 0.0, 0.0, 0.0, 0.0, 0.0, 0.0, 0.0, 0.0, 0.0, 0.0, 0.0, 0.0, 0.0, 0.0, 0.0, 0.0, 0.0, 0.0, 0.0, 0.0, 0.0, 0.0, 0.0, 0.0, 0.0, 0.0, 0.0, 0.0, 0.0, 0.0, 0.0, 0.0, 0.0, 0.0, 0.0, 0.0, 0.0, 0.0, 0.0, 0.0, 0.0, 0.0, 0.0, 0.0, 0.0, 0.0, 0.0, 0.0, 0.0, 0.0, 0.0, 0.0, 0.0, 0.0, 0.0, 0.0, 0.0, 0.0, 0.0, 0.0, 0.0, 0.0, 0.0, 0.0, 0.0, 0.0, 0.0, 0.0, 0.0, 0.0, 0.0, 0.0, 0.0, 0.0, 0.0, 0.0, 0.0, 0.0, 0.0, 0.0, 0.0, 0.0, 0.0, 0.0, 0.0, 0.0, 0.0, 0.0, 0.0, 0.0, 0.0, 0.0, 0.0, 0.0, 0.0, 0.0, 0.0, 0.0, 0.0, 0.0, 0.0, 0.0, 0.0, 0.0, 0.0, 0.0, 0.0, 0.0, 0.0, 0.0, 0.0, 0.0, 0.0, 0.0, 0.0, 0.0, 0.0, 0.0, 0.0, 0.0, 0.0, 0.0, 0.0, 0.0, 0.0, 0.0, 0.0, 0.0, 0.0, 0.0, 0.0, 0.0, 0.0, 0.0, 0.0, 0.0, 0.0, 0.0, 0.0, 0.0, 0.0, 0.0, 0.0, 0.0, 0.0, 0.0, 0.0, 0.0, 0.0, 0.0, 0.0, 0.0, 0.0, 0.0, 0.0, 0.0, 0.0, 0.0, 0.0, 0.0, 0.0, 0.0, 0.0, 0.0, 0.0, 0.0, 0.0, 0.0, 0.0, 0.0, 0.0, 0.0, 0.0, 0.0, 0.0, 0.0, 0.0, 0.0, 0.0, 0.0, 0.0, 0.0, 0.0, 0.0, 0.0, 0.0, 0.0, 0.0, 0.0, 0.0, 0.0, 0.0, 0.0, 0.0, 0.0, 0.0, 0.0, 0.0, 0.0, 0.0, 0.0, 0.0, 0.0, 0.0, 0.0, 0.0, 0.0, 0.0, 0.0, 0.0, 0.0, 0.0, 0.0, 0.0, 0.0, 0.0, 0.0, 0.0, 0.0, 0.0, 0.0, 0.0, 0.0, 0.0, 0.0, 0.0, 0.0, 0.0, 0.0, 0.0, 0.0, 0.0, 0.0, 0.0, 0.0, 0.0, 0.0, 0.0, 0.0, 0.0, 0.0, 0.0, 0.0, 0.0, 0.0, 0.0]}